0
Node Left Objective IInf Best_Integer Best_Bound ItCnt Gap
0+ 0 nan nan 360.0000 -360.0000 nan 200.00%
0 0 33.3849 18 360.0000 33.3849 115 90.73%
0+ 0 nan nan 96.7438 33.3849 nan 65.49%
0+ 0 nan nan 80.4081 33.3849 nan 58.48%
0+ 0 nan nan 78.2168 33.3849 nan 57.32%
0 2 33.3849 18 78.2168 33.3849 115 57.32%
CPXPARAM_MIP_Cuts_GUBCovers 0
1
Node Left Objective IInf Best_Integer Best_Bound ItCnt Gap
0+ 0 nan nan 360.0000 -360.0000 nan 200.00%
0 0 -0.0000 24 360.0000 -0.0000 121 100.00%
0+ 0 nan nan 32.3215 -0.0000 nan 100.00%
0+ 0 nan nan 23.7175 -0.0000 nan 100.00%
0 2 0.0000 24 23.7175 0.0000 121 100.00%
CPXPARAM_MIP_Cuts_GUBCovers 0
2
Node Left Objective IInf Best_Integer Best_Bound ItCnt Gap
0+ 0 nan nan 450.0000 -450.0000 nan 200.00%
0 0 24.3849 16 450.0000 24.3849 114 94.58%
0+ 0 nan nan 77.4880 24.3849 nan 68.53%
0+ 0 nan nan 51.3526 24.3849 nan 52.51%
0+ 0 nan nan 49.6768 24.3849 nan 50.91%
0 2 24.3849 16 49.6768 24.3849 114 50.91%
CPXPARAM_MIP_Cuts_GUBCovers 0
3
Node Left Objective IInf Best_Integer Best_Bound ItCnt Gap
0+ 0 nan nan 330.0000 -330.0000 nan 200.00%
0 0 -0.0000 24 330.0000 -0.0000 119 100.00%
0+ 0 nan nan 55.2731 -0.0000 nan 100.00%
0+ 0 nan nan 35.2629 -0.0000 nan 100.00%
0+ 0 nan nan 29.7190 -0.0000 nan 100.00%
0+ 0 nan nan 27.4179 -0.0000 nan 100.00%
0 2 0.0000 24 27.4179 0.0000 119 100.00%
CPXPARAM_MIP_Cuts_GUBCovers 0
4
Node Left Objective IInf Best_Integer Best_Bound ItCnt Gap
0+ 0 nan nan 360.0000 -360.0000 nan 200.00%
0 0 43.8454 15 360.0000 43.8454 120 87.82%
0+ 0 nan nan 75.9975 43.8454 nan 42.31%
0 2 43.8454 15 75.9975 43.8454 120 42.31%
CPXPARAM_MIP_Cuts_GUBCovers 0
5
Node Left Objective IInf Best_Integer Best_Bound ItCnt Gap
0+ 0 nan nan 390.0000 -390.0000 nan 200.00%
0 0 0.0000 25 390.0000 0.0000 141 100.00%
0+ 0 nan nan 28.0320 0.0000 nan 100.00%
0+ 0 nan nan 20.9417 0.0000 nan 100.00%
0 2 0.0000 25 20.9417 0.0000 141 100.00%
CPXPARAM_MIP_Cuts_GUBCovers 0
6
Node Left Objective IInf Best_Integer Best_Bound ItCnt Gap
0+ 0 nan nan 360.0000 -360.0000 nan 200.00%
0+ 0 nan nan 70.1893 -360.0000 nan 612.90%
0 0 43.8454 11 70.1893 43.8454 108 37.53%
0+ 0 nan nan 51.9567 43.8454 nan 15.61%
0+ 0 nan nan 51.2130 43.8454 nan 14.39%
0 2 43.8454 6 51.2130 43.8454 108 14.39%
CPXPARAM_MIP_Cuts_GUBCovers 0
7
Node Left Objective IInf Best_Integer Best_Bound ItCnt Gap
0+ 0 nan nan 390.0000 -390.0000 nan 200.00%
0+ 0 nan nan 68.7303 -390.0000 nan 667.44%
0 0 -0.0000 21 68.7303 -0.0000 127 100.00%
0+ 0 nan nan 20.8747 -0.0000 nan 100.00%
0+ 0 nan nan 14.5236 -0.0000 nan 100.00%
0+ 0 nan nan 9.8291 -0.0000 nan 100.00%
0 2 0.0000 20 9.8291 0.0000 127 100.00%
CPXPARAM_MIP_Cuts_GUBCovers 0
8
Node Left Objective IInf Best_Integer Best_Bound ItCnt Gap
0+ 0 nan nan 420.0000 -420.0000 nan 200.00%
0 0 56.1710 16 420.0000 56.1710 111 86.63%
0+ 0 nan nan 105.5506 56.1710 nan 46.78%
0+ 0 nan nan 80.6298 56.1710 nan 30.33%
0+ 0 nan nan 79.7613 56.1710 nan 29.58%
0+ 0 nan nan 77.0092 56.1710 nan 27.06%
0 2 56.1710 16 77.0092 56.1710 111 27.06%
CPXPARAM_MIP_Cuts_GUBCovers 0
9
Node Left Objective IInf Best_Integer Best_Bound ItCnt Gap
0+ 0 nan nan 420.0000 -420.0000 nan 200.00%
0 0 0.0000 26 420.0000 0.0000 132 100.00%
0+ 0 nan nan 90.5377 0.0000 nan 100.00%
0+ 0 nan nan 52.4460 0.0000 nan 100.00%
0+ 0 nan nan 42.4415 0.0000 nan 100.00%
0 2 0.0000 26 42.4415 0.0000 132 100.00%
CPXPARAM_MIP_Cuts_GUBCovers 0
10
Node Left Objective IInf Best_Integer Best_Bound ItCnt Gap
0+ 0 nan nan 570.0000 -570.0000 nan 200.00%
0 0 41.1710 16 570.0000 41.1710 125 92.78%
0+ 0 nan nan 102.1758 41.1710 nan 59.71%
0+ 0 nan nan 81.7040 41.1710 nan 49.61%
0+ 0 nan nan 76.3028 41.1710 nan 46.04%
0 2 41.1710 16 76.3028 41.1710 125 46.04%
CPXPARAM_MIP_Cuts_GUBCovers 0
11
Node Left Objective IInf Best_Integer Best_Bound ItCnt Gap
0+ 0 nan nan 450.0000 -450.0000 nan 200.00%
0 0 0.0000 22 450.0000 0.0000 134 100.00%
0+ 0 nan nan 71.7694 0.0000 nan 100.00%
0+ 0 nan nan 49.2594 0.0000 nan 100.00%
0+ 0 nan nan 30.7074 0.0000 nan 100.00%
0 2 0.0000 22 30.7074 0.0000 134 100.00%
CPXPARAM_MIP_Cuts_GUBCovers 0
12
Node Left Objective IInf Best_Integer Best_Bound ItCnt Gap
0+ 0 nan nan 450.0000 -450.0000 nan 200.00%
0 0 34.1191 18 450.0000 34.1191 110 92.42%
0+ 0 nan nan 93.2111 34.1191 nan 63.40%
0+ 0 nan nan 78.1473 34.1191 nan 56.34%
0+ 0 nan nan 74.5990 34.1191 nan 54.26%
0 2 34.1191 18 74.5990 34.1191 110 54.26%
CPXPARAM_MIP_Cuts_GUBCovers 0
13
Node Left Objective IInf Best_Integer Best_Bound ItCnt Gap
0+ 0 nan nan 390.0000 -390.0000 nan 200.00%
0 0 0.0000 26 390.0000 0.0000 142 100.00%
0+ 0 nan nan 72.2076 0.0000 nan 100.00%
0+ 0 nan nan 46.1574 0.0000 nan 100.00%
0+ 0 nan nan 39.2990 0.0000 nan 100.00%
0 2 0.0000 26 39.2990 0.0000 142 100.00%
CPXPARAM_MIP_Cuts_GUBCovers 0
14
Node Left Objective IInf Best_Integer Best_Bound ItCnt Gap
0+ 0 nan nan 480.0000 -480.0000 nan 200.00%
0 0 31.1191 15 480.0000 31.1191 124 93.52%
0+ 0 nan nan 61.8842 31.1191 nan 49.71%
0+ 0 nan nan 56.2880 31.1191 nan 44.71%
0+ 0 nan nan 48.8798 31.1191 nan 36.34%
0 2 31.1191 15 48.8798 31.1191 124 36.34%
CPXPARAM_MIP_Cuts_GUBCovers 0
15
Node Left Objective IInf Best_Integer Best_Bound ItCnt Gap
0+ 0 nan nan 420.0000 -420.0000 nan 200.00%
0 0 0.0000 22 420.0000 0.0000 127 100.00%
0+ 0 nan nan 46.8457 0.0000 nan 100.00%
0+ 0 nan nan 38.3162 0.0000 nan 100.00%
0+ 0 nan nan 13.8888 0.0000 nan 100.00%
0 2 0.0000 22 13.8888 0.0000 127 100.00%
CPXPARAM_MIP_Cuts_GUBCovers 0
16
Node Left Objective IInf Best_Integer Best_Bound ItCnt Gap
0+ 0 nan nan 450.0000 -450.0000 nan 200.00%
0 0 41.5886 16 450.0000 41.5886 100 90.76%
0+ 0 nan nan 98.3618 41.5886 nan 57.72%
0+ 0 nan nan 96.4713 41.5886 nan 56.89%
0 2 41.5886 16 96.4713 41.5886 100 56.89%
CPXPARAM_MIP_Cuts_GUBCovers 0
17
Node Left Objective IInf Best_Integer Best_Bound ItCnt Gap
0+ 0 nan nan 360.0000 -360.0000 nan 200.00%
0 0 0.0000 23 360.0000 0.0000 120 100.00%
0+ 0 nan nan 42.0628 0.0000 nan 100.00%
0 2 0.0000 23 42.0628 0.0000 120 100.00%
CPXPARAM_MIP_Cuts_GUBCovers 0
18
Node Left Objective IInf Best_Integer Best_Bound ItCnt Gap
0+ 0 nan nan 390.0000 -390.0000 nan 200.00%
0+ 0 nan nan 77.2939 -390.0000 nan 604.57%
0 0 47.5886 11 77.2939 47.5886 104 38.43%
0+ 0 nan nan 66.7840 47.5886 nan 28.74%
0+ 0 nan nan 64.5916 47.5886 nan 26.32%
0+ 0 nan nan 63.7599 47.5886 nan 25.36%
0 2 47.5886 11 63.7599 47.5886 104 25.36%
CPXPARAM_MIP_Cuts_GUBCovers 0
19
Node Left Objective IInf Best_Integer Best_Bound ItCnt Gap
0+ 0 nan nan 390.0000 -390.0000 nan 200.00%
0+ 0 nan nan 77.2939 -390.0000 nan 604.57%
0 0 -0.0000 23 77.2939 -0.0000 112 100.00%
0+ 0 nan nan 49.9593 -0.0000 nan 100.00%
0+ 0 nan nan 24.0902 -0.0000 nan 100.00%
0 2 0.0000 23 24.0902 0.0000 112 100.00%
CPXPARAM_MIP_Cuts_GUBCovers 0
20
Node Left Objective IInf Best_Integer Best_Bound ItCnt Gap
0+ 0 nan nan 330.0000 -330.0000 nan 200.00%
0 0 25.2745 13 330.0000 25.2745 114 92.34%
0+ 0 nan nan 46.1855 25.2745 nan 45.28%
0 2 25.2745 13 46.1855 25.2745 114 45.28%
CPXPARAM_MIP_Cuts_GUBCovers 0
21
Node Left Objective IInf Best_Integer Best_Bound ItCnt Gap
0+ 0 nan nan 330.0000 -330.0000 nan 200.00%
0 0 -0.0000 23 330.0000 -0.0000 137 100.00%
0+ 0 nan nan 25.9784 -0.0000 nan 100.00%
0+ 0 nan nan 21.3702 -0.0000 nan 100.00%
0 2 0.0000 23 21.3702 0.0000 137 100.00%
CPXPARAM_MIP_Cuts_GUBCovers 0
22
Node Left Objective IInf Best_Integer Best_Bound ItCnt Gap
0+ 0 nan nan 330.0000 -330.0000 nan 200.00%
0 0 25.2745 9 330.0000 25.2745 107 92.34%
0+ 0 nan nan 32.2062 25.2745 nan 21.52%
0+ 0 nan nan 30.8067 25.2745 nan 17.96%
0+ 0 nan nan 30.7117 25.2745 nan 17.70%
0 2 25.2745 6 30.7117 25.2745 107 17.70%
CPXPARAM_MIP_Cuts_GUBCovers 0
23
Node Left Objective IInf Best_Integer Best_Bound ItCnt Gap
0+ 0 nan nan 330.0000 -330.0000 nan 200.00%
0 0 -0.0000 18 330.0000 -0.0000 129 100.00%
0+ 0 nan nan 25.8557 -0.0000 nan 100.00%
0+ 0 nan nan 10.8551 -0.0000 nan 100.00%
0+ 0 nan nan 7.7924 -0.0000 nan 100.00%
0 2 0.0000 17 7.7924 0.0000 129 100.00%
CPXPARAM_MIP_Cuts_GUBCovers 0
24
Node Left Objective IInf Best_Integer Best_Bound ItCnt Gap
0+ 0 nan nan 390.0000 -390.0000 nan 200.00%
0 0 29.8402 18 390.0000 29.8402 113 92.35%
0+ 0 nan nan 53.3075 29.8402 nan 44.02%
0+ 0 nan nan 42.5273 29.8402 nan 29.83%
0 2 29.8402 16 42.5273 29.8402 113 29.83%
CPXPARAM_MIP_Cuts_GUBCovers 0
25
Node Left Objective IInf Best_Integer Best_Bound ItCnt Gap
0+ 0 nan nan 390.0000 -390.0000 nan 200.00%
0 0 0.0000 26 390.0000 0.0000 121 100.00%
0+ 0 nan nan 29.0852 0.0000 nan 100.00%
0+ 0 nan nan 10.7342 0.0000 nan 100.00%
0 2 0.0000 26 10.7342 0.0000 121 100.00%
CPXPARAM_MIP_Cuts_GUBCovers 0
26
Node Left Objective IInf Best_Integer Best_Bound ItCnt Gap
0+ 0 nan nan 390.0000 -390.0000 nan 200.00%
0 0 29.8490 14 390.0000 29.8490 117 92.35%
0+ 0 nan nan 39.1730 29.8490 nan 23.80%
0+ 0 nan nan 38.6911 29.8490 nan 22.85%
0 2 29.8490 6 38.6911 29.8490 117 22.85%
CPXPARAM_MIP_Cuts_GUBCovers 0
27
Node Left Objective IInf Best_Integer Best_Bound ItCnt Gap
0+ 0 nan nan 360.0000 -360.0000 nan 200.00%
0 0 -0.0000 21 360.0000 -0.0000 122 100.00%
0+ 0 nan nan 72.0000 -0.0000 nan 100.00%
0+ 0 nan nan 17.6195 -0.0000 nan 100.00%
0+ 0 nan nan 12.4555 -0.0000 nan 100.00%
0 2 0.0000 21 12.4555 0.0000 122 100.00%
CPXPARAM_MIP_Cuts_GUBCovers 0
28
Node Left Objective IInf Best_Integer Best_Bound ItCnt Gap
0+ 0 nan nan 480.0000 -480.0000 nan 200.00%
0 0 56.4662 14 480.0000 56.4662 102 88.24%
0+ 0 nan nan 85.1204 56.4662 nan 33.66%
0+ 0 nan nan 80.3948 56.4662 nan 29.76%
0 2 56.4662 14 80.3948 56.4662 102 29.76%
CPXPARAM_MIP_Cuts_GUBCovers 0
29
Node Left Objective IInf Best_Integer Best_Bound ItCnt Gap
0+ 0 nan nan 390.0000 -390.0000 nan 200.00%
0 0 0.0000 26 390.0000 0.0000 116 100.00%
0+ 0 nan nan 28.0451 0.0000 nan 100.00%
0 2 0.0000 26 28.0451 0.0000 116 100.00%
CPXPARAM_MIP_Cuts_GUBCovers 0
30
Node Left Objective IInf Best_Integer Best_Bound ItCnt Gap
0+ 0 nan nan 420.0000 -420.0000 nan 200.00%
0 0 62.4662 9 420.0000 62.4662 108 85.13%
0+ 0 nan nan 73.8536 62.4662 nan 15.42%
0+ 0 nan nan 73.6398 62.4662 nan 15.17%
0 2 62.4662 7 73.6398 62.4662 108 15.17%
CPXPARAM_MIP_Cuts_GUBCovers 0
31
Node Left Objective IInf Best_Integer Best_Bound ItCnt Gap
0+ 0 nan nan 420.0000 -420.0000 nan 200.00%
0 0 -0.0000 21 420.0000 -0.0000 121 100.00%
0+ 0 nan nan 10.9948 -0.0000 nan 100.00%
0+ 0 nan nan 8.0784 -0.0000 nan 100.00%
0 2 0.0000 21 8.0784 0.0000 121 100.00%
CPXPARAM_MIP_Cuts_GUBCovers 0
32
Node Left Objective IInf Best_Integer Best_Bound ItCnt Gap
0+ 0 nan nan 300.0000 -300.0000 nan 200.00%
0 0 38.5476 15 300.0000 38.5476 115 87.15%
0+ 0 nan nan 76.5635 38.5476 nan 49.65%
0+ 0 nan nan 71.6308 38.5476 nan 46.19%
0 2 38.5476 15 71.6308 38.5476 115 46.19%
CPXPARAM_MIP_Cuts_GUBCovers 0
33
Node Left Objective IInf Best_Integer Best_Bound ItCnt Gap
0+ 0 nan nan 360.0000 -360.0000 nan 200.00%
0 0 0.0000 23 360.0000 0.0000 119 100.00%
0+ 0 nan nan 42.6820 0.0000 nan 100.00%
0+ 0 nan nan 25.2876 0.0000 nan 100.00%
0 2 0.0000 23 25.2876 0.0000 119 100.00%
CPXPARAM_MIP_Cuts_GUBCovers 0
34
Node Left Objective IInf Best_Integer Best_Bound ItCnt Gap
0+ 0 nan nan 390.0000 -390.0000 nan 200.00%
0 0 29.4698 12 390.0000 29.4698 119 92.44%
0+ 0 nan nan 53.3914 29.4698 nan 44.80%
0+ 0 nan nan 46.9451 29.4698 nan 37.22%
0+ 0 nan nan 46.0845 29.4698 nan 36.05%
0 2 29.4698 12 46.0845 29.4698 119 36.05%
CPXPARAM_MIP_Cuts_GUBCovers 0
35
Node Left Objective IInf Best_Integer Best_Bound ItCnt Gap
0+ 0 nan nan 360.0000 -360.0000 nan 200.00%
0 0 0.0000 19 360.0000 0.0000 124 100.00%
0+ 0 nan nan 55.4328 0.0000 nan 100.00%
0+ 0 nan nan 43.7480 0.0000 nan 100.00%
0+ 0 nan nan 36.2380 0.0000 nan 100.00%
0+ 0 nan nan 19.0436 0.0000 nan 100.00%
0 2 0.0000 19 19.0436 0.0000 124 100.00%
CPXPARAM_MIP_Cuts_GUBCovers 0
36
Node Left Objective IInf Best_Integer Best_Bound ItCnt Gap
0+ 0 nan nan 480.0000 -480.0000 nan 200.00%
0 0 33.0392 15 480.0000 33.0392 116 93.12%
0+ 0 nan nan 67.3593 33.0392 nan 50.95%
0+ 0 nan nan 64.2488 33.0392 nan 48.58%
0 2 33.0392 15 64.2488 33.0392 116 48.58%
CPXPARAM_MIP_Cuts_GUBCovers 0
37
Node Left Objective IInf Best_Integer Best_Bound ItCnt Gap
0+ 0 nan nan 450.0000 -450.0000 nan 200.00%
0 0 0.0000 25 450.0000 0.0000 124 100.00%
0+ 0 nan nan 57.0719 0.0000 nan 100.00%
0+ 0 nan nan 53.7889 0.0000 nan 100.00%
0+ 0 nan nan 41.1438 0.0000 nan 100.00%
0 2 0.0000 25 41.1438 0.0000 124 100.00%
CPXPARAM_MIP_Cuts_GUBCovers 0
38
Node Left Objective IInf Best_Integer Best_Bound ItCnt Gap
0+ 0 nan nan 390.0000 -390.0000 nan 200.00%
0 0 42.0392 11 390.0000 42.0392 104 89.22%
0+ 0 nan nan 53.2610 42.0392 nan 21.07%
0+ 0 nan nan 50.0912 42.0392 nan 16.07%
0 2 42.0392 7 50.0912 42.0392 104 16.07%
CPXPARAM_MIP_Cuts_GUBCovers 0
39
Node Left Objective IInf Best_Integer Best_Bound ItCnt Gap
0+ 0 nan nan 480.0000 -480.0000 nan 200.00%
0 0 0.0000 23 480.0000 0.0000 130 100.00%
0+ 0 nan nan 44.0554 0.0000 nan 100.00%
0+ 0 nan nan 36.1611 0.0000 nan 100.00%
0+ 0 nan nan 18.9505 0.0000 nan 100.00%
0 2 0.0000 23 18.9505 0.0000 130 100.00%
CPXPARAM_MIP_Cuts_GUBCovers 0
